n_res = 4;
rc = [ 10, 14, 12, 10 ];
n_tasks = 30;
d = [ 5, 6, 2, 1, 3, 7, 4, 7, 10, 1, 5, 10, 10, 8, 2, 3, 10, 2, 10, 10, 6, 10, 7, 10, 4, 2, 6, 4, 5, 1 ];
rr = [| 0, 6, 6, 5, 7, 0, 0, 8, 7, 1, 0, 0, 0, 0, 0, 6, 0, 4, 0, 2, 1, 0, 6, 7, 3, 0, 0, 4, 6, 8
      | 1, 0, 3, 0, 0, 5, 10, 10, 5, 0, 1, 9, 0, 0, 0, 0, 6, 6, 8, 0, 4, 0, 0, 0, 0, 0, 0, 0, 3, 2
      | 10, 3, 8, 2, 0, 5, 0, 0, 6, 7, 0, 0, 0, 5, 8, 10, 2, 2, 0, 0, 4, 2, 9, 6, 0, 3, 0, 7, 0, 3
      | 0, 0, 6, 0, 0, 3, 0, 0, 0, 0, 3, 0, 8, 2, 0, 0, 0, 9, 2, 0, 0, 1, 0, 0, 0, 1, 2, 4, 0, 0 |];
suc = [ { 2 }, 
        { 3 }, 
        { 4 }, 
        { 5 }, 
        { 6 }, 
        { 7 }, 
        { 8 }, 
        { 9 }, 
        { 10 }, 
        { 11 }, 
        { 12 }, 
        { 13 }, 
        { 14 }, 
        { 15 }, 
        { 16 }, 
        { 17 }, 
        { 18 }, 
        { 19 }, 
        { 20 }, 
        { 21 }, 
        { 22 }, 
        { 23 }, 
        { 24 }, 
        { 25 }, 
        { 26 }, 
        { 27 }, 
        { 28 }, 
        { 29 }, 
        { 30 }, 
        {  }]; 
